g9 0 1 0 7 20170614 0 4 0 240	# problem ex14_2_1
 5 7 1 0 1	# vars, constraints, objectives, ranges, eqns
 6 0	# nonlinear constraints, objectives
 0 0	# network constraints: nonlinear, linear
 4 0 0	# nonlinear vars in constraints, objectives, both
 0 0 0 1	# linear network variables; functions; arith, flags
 0 0 0 0 0	# discrete variables: binary, integer, nonlinear (b,c,o)
 33 1	# nonzeros in Jacobian, gradients
 0 0	# max name lengths: constraints, variables
 0 0 0 0 0	# common exprs: b,c,o,c1,o1
b
0 1e-06 1
0 1e-06 1
0 1e-06 1
0 20 80
2 0
x4
0 0.272
1 0.465
2 0.253
3 54.254
r
1 10.7545020354713
1 10.6349978691449
1 12.9738026256517
1 -10.7545020354713
1 -10.6349978691449
1 -12.9738026256517
4 1
C0
o54
5
o43
o54
3
v0
o2
n0.48
v1
o2
n0.768
v2
o3
v0
o54
3
v0
o2
n0.48
v1
o2
n0.768
v2
o3
o2
n1.55
v1
o54
3
o2
n1.55
v0
v1
o2
n0.544
v2
o3
o2
n0.566
v2
o54
3
o2
n0.566
v0
o2
n0.65
v1
v2
o3
n2787.49800065313
o0
n229.664
v3
C1
o54
5
o43
o54
3
o2
n1.55
v0
v1
o2
n0.544
v2
o3
o2
n0.48
v0
o54
3
v0
o2
n0.48
v1
o2
n0.768
v2
o3
v1
o54
3
o2
n1.55
v0
v1
o2
n0.544
v2
o3
o2
n0.65
v2
o54
3
o2
n0.566
v0
o2
n0.65
v1
v2
o3
n2665.5415812027
o0
n219.726
v3
C2
o54
5
o43
o54
3
o2
n0.566
v0
o2
n0.65
v1
v2
o3
o2
n0.768
v0
o54
3
v0
o2
n0.48
v1
o2
n0.768
v2
o3
o2
n0.544
v1
o54
3
o2
n1.55
v0
v1
o2
n0.544
v2
o3
v2
o54
3
o2
n0.566
v0
o2
n0.65
v1
v2
o3
n3643.31361767678
o0
n239.726
v3
C3
o16
o54
5
o43
o54
3
v0
o2
n0.48
v1
o2
n0.768
v2
o3
v0
o54
3
v0
o2
n0.48
v1
o2
n0.768
v2
o3
o2
n1.55
v1
o54
3
o2
n1.55
v0
v1
o2
n0.544
v2
o3
o2
n0.566
v2
o54
3
o2
n0.566
v0
o2
n0.65
v1
v2
o3
n2787.49800065313
o0
n229.664
v3
C4
o16
o54
5
o43
o54
3
o2
n1.55
v0
v1
o2
n0.544
v2
o3
o2
n0.48
v0
o54
3
v0
o2
n0.48
v1
o2
n0.768
v2
o3
v1
o54
3
o2
n1.55
v0
v1
o2
n0.544
v2
o3
o2
n0.65
v2
o54
3
o2
n0.566
v0
o2
n0.65
v1
v2
o3
n2665.5415812027
o0
n219.726
v3
C5
o16
o54
5
o43
o54
3
o2
n0.566
v0
o2
n0.65
v1
v2
o3
o2
n0.768
v0
o54
3
v0
o2
n0.48
v1
o2
n0.768
v2
o3
o2
n0.544
v1
o54
3
o2
n1.55
v0
v1
o2
n0.544
v2
o3
v2
o54
3
o2
n0.566
v0
o2
n0.65
v1
v2
o3
n3643.31361767678
o0
n239.726
v3
C6
n0
O0 0
n0
k4
7
14
21
27
J0 5
0 0
1 0
2 0
3 0
4 -1
J1 5
0 0
1 0
2 0
3 0
4 -1
J2 5
0 0
1 0
2 0
3 0
4 -1
J3 5
0 0
1 0
2 0
3 0
4 -1
J4 5
0 0
1 0
2 0
3 0
4 -1
J5 5
0 0
1 0
2 0
3 0
4 -1
J6 3
0 1
1 1
2 1
G0 1
4 1
